; benchmark generated from python API
(set-info :status unknown)
(declare-fun x_month () Int)
(declare-fun x_day () Int)
(declare-fun x_year () Int)
(assert
 (>= x_month 1))
(assert
 (<= x_month 12))
(assert
 (>= x_day 1))
(assert
 (<= x_day 31))
(assert
 (let (($x617 (<= x_day 28)))
 (let (($x534 (<= x_day 29)))
 (let (($x690 (= (mod x_year 400) 0)))
 (let (($x181 (= (mod x_year 4) 0)))
 (let (($x396 (ite (or (and $x181 (and (distinct (mod x_year 100) 0) true)) $x690) $x534 $x617)))
 (let (($x117 (= x_month 2)))
 (ite $x117 $x396 true))))))))
(assert
 (let (($x432 (<= x_day 30)))
 (let (($x187 (or (= x_month 4) (= x_month 6) (= x_month 9) (= x_month 11))))
 (ite $x187 $x432 true))))
(assert
 (let (($x760 (= x_year 2023)))
 (let (($x367 (and $x760 (or (> x_month 1) (and (= x_month 1) (>= x_day 31))))))
 (or (> x_year 2023) $x367))))
(assert
 (let (($x238 (or (= (+ (mod (- (+ x_month 1) 1) 12) 1) 4) (= (+ (mod (- (+ x_month 1) 1) 12) 1) 6) (= (+ (mod (- (+ x_month 1) 1) 12) 1) 9) (= (+ (mod (- (+ x_month 1) 1) 12) 1) 11))))
(let ((?x214 (+ (+ x_year 0) (div (- (+ x_month 1) 1) 12))))
(let (($x434 (or (and (= (mod ?x214 4) 0) (and (distinct (mod ?x214 100) 0) true)) (= (mod ?x214 400) 0))))
(let ((?x619 (ite (= (+ (mod (- (+ x_month 1) 1) 12) 1) 2) (ite $x434 29 28) (ite $x238 30 31))))
(let ((?x186 (ite (< x_day 1) 1 (ite (> x_day ?x619) ?x619 x_day))))
(let ((?x629 (ite (< ?x186 1) 1 (ite (> ?x186 ?x619) ?x619 ?x186))))
(let (($x552 (and (= (mod (+ ?x214 (* (div 0 146097) 400)) 4) 0) (and (distinct (mod (+ ?x214 (* (div 0 146097) 400)) 100) 0) true))))
(let (($x244 (or $x552 (= (mod (+ ?x214 (* (div 0 146097) 400)) 400) 0))))
(let ((?x679 (ite (= 1 (+ (mod (- (+ x_month 1) 1) 12) 1)) (ite $x244 0 0) 0)))
(let ((?x121 (ite (= 2 (+ (mod (- (+ x_month 1) 1) 12) 1)) (ite $x244 31 31) ?x679)))
(let ((?x799 (ite (= 3 (+ (mod (- (+ x_month 1) 1) 12) 1)) (ite $x244 60 59) ?x121)))
(let ((?x221 (ite (= 4 (+ (mod (- (+ x_month 1) 1) 12) 1)) (ite $x244 91 90) ?x799)))
(let ((?x397 (ite (= 5 (+ (mod (- (+ x_month 1) 1) 12) 1)) (ite $x244 121 120) ?x221)))
(let ((?x726 (ite (= 6 (+ (mod (- (+ x_month 1) 1) 12) 1)) (ite $x244 152 151) ?x397)))
(let ((?x838 (ite (= 7 (+ (mod (- (+ x_month 1) 1) 12) 1)) (ite $x244 182 181) ?x726)))
(let ((?x790 (ite (= 8 (+ (mod (- (+ x_month 1) 1) 12) 1)) (ite $x244 213 212) ?x838)))
(let ((?x786 (ite (= 9 (+ (mod (- (+ x_month 1) 1) 12) 1)) (ite $x244 244 243) ?x790)))
(let ((?x281 (ite (= 10 (+ (mod (- (+ x_month 1) 1) 12) 1)) (ite $x244 274 273) ?x786)))
(let ((?x712 (ite (= 11 (+ (mod (- (+ x_month 1) 1) 12) 1)) (ite $x244 305 304) ?x281)))
(let ((?x107 (ite (= 12 (+ (mod (- (+ x_month 1) 1) 12) 1)) (ite $x244 335 334) ?x712)))
(let ((?x383 (+ (* 365 (- (+ ?x214 (* (div 0 146097) 400)) 1)) (div (- (+ ?x214 (* (div 0 146097) 400)) 1) 4))))
(let ((?x247 (+ (- ?x383 (div (- (+ ?x214 (* (div 0 146097) 400)) 1) 100)) (div (- (+ ?x214 (* (div 0 146097) 400)) 1) 400))))
(let ((?x365 (+ (+ (+ ?x247 ?x107) (- ?x629 1)) (mod 0 146097))))
(let ((?x652 (mod ?x365 146097)))
(let ((?x260 (div ?x652 36524)))
(let ((?x563 (ite (<= 4 ?x260) 3 ?x260)))
(let ((?x407 (- ?x652 (* ?x563 36524))))
(let ((?x460 (mod ?x407 1461)))
(let ((?x583 (div ?x460 365)))
(let ((?x612 (ite (<= 4 ?x583) 3 ?x583)))
(let ((?x277 (+ (+ (* (div ?x365 146097) 400) (* ?x563 100)) (* (div ?x407 1461) 4))))
(let ((?x413 (+ (+ ?x277 ?x612) 1)))
(let (($x757 (or (and (= (mod ?x413 4) 0) (and (distinct (mod ?x413 100) 0) true)) (= (mod ?x413 400) 0))))
(let ((?x587 (- ?x460 (* ?x612 365))))
(let ((?x237 (ite $x757 31 31)))
(let (($x607 (>= ?x587 ?x237)))
(let ((?x562 (ite $x607 (+ (- ?x587 ?x237) 1) (+ (- ?x587 (ite $x757 0 0)) 1))))
(let ((?x455 (ite $x757 60 59)))
(let (($x845 (>= ?x587 ?x455)))
(let ((?x323 (ite $x757 91 90)))
(let (($x817 (>= ?x587 ?x323)))
(let ((?x645 (ite $x817 (+ (- ?x587 ?x323) 1) (ite $x845 (+ (- ?x587 ?x455) 1) ?x562))))
(let ((?x798 (ite $x757 121 120)))
(let (($x759 (>= ?x587 ?x798)))
(let ((?x823 (ite $x757 152 151)))
(let (($x139 (>= ?x587 ?x823)))
(let ((?x533 (ite $x139 (+ (- ?x587 ?x823) 1) (ite $x759 (+ (- ?x587 ?x798) 1) ?x645))))
(let ((?x819 (ite $x757 182 181)))
(let (($x802 (>= ?x587 ?x819)))
(let ((?x557 (ite $x757 213 212)))
(let (($x694 (>= ?x587 ?x557)))
(let ((?x1668 (ite $x694 (+ (- ?x587 ?x557) 1) (ite $x802 (+ (- ?x587 ?x819) 1) ?x533))))
(let ((?x138 (ite $x757 244 243)))
(let (($x330 (>= ?x587 ?x138)))
(let ((?x826 (ite $x757 274 273)))
(let (($x254 (>= ?x587 ?x826)))
(let ((?x530 (ite $x254 (+ (- ?x587 ?x826) 1) (ite $x330 (+ (- ?x587 ?x138) 1) ?x1668))))
(let ((?x824 (ite $x757 305 304)))
(let (($x841 (>= ?x587 ?x824)))
(let ((?x409 (ite $x757 335 334)))
(let (($x821 (>= ?x587 ?x409)))
(let ((?x586 (ite $x821 (+ (- ?x587 ?x409) 1) (ite $x841 (+ (- ?x587 ?x824) 1) ?x530))))
(let (($x745 (= 0 0)))
(let ((?x299 (ite $x759 5 (ite $x817 4 (ite $x845 3 (ite $x607 2 1))))))
(let ((?x454 (ite $x330 9 (ite $x694 8 (ite $x802 7 (ite $x139 6 ?x299))))))
(let ((?x213 (+ (mod (- (+ x_month 1) 1) 12) 1)))
(let ((?x564 (ite $x745 ?x213 (ite $x821 12 (ite $x841 11 (ite $x254 10 ?x454))))))
(let (($x682 (or (< ?x564 3) (and (= ?x564 3) (<= (ite $x745 ?x629 ?x586) 1)))))
(or (< (ite $x745 ?x214 ?x413) 2023) (and (= (ite $x745 ?x214 ?x413) 2023) $x682)))))))))))))))))))))))))))))))))))))))))))))))))))))))))))))))))))))))
(check-sat)
